language Essence 1.3

letting class be
        function(1 --> 4, 2 --> 3, 3 --> 2, 4 --> 1, 5 --> 2, 6 --> 2, 7 --> 2, 8 --> 3, 9 --> 1, 10 --> 4, 11 --> 2,
                 12 --> 4, 13 --> 4, 14 --> 1, 15 --> 3, 16 --> 1, 17 --> 1, 18 --> 4, 19 --> 4, 20 --> 3, 21 --> 4)
letting deck_length be 88
letting deck_width be 84
letting length be
        function(1 --> 1, 2 --> 1, 3 --> 1, 4 --> 4, 5 --> 1, 6 --> 21, 7 --> 1, 8 --> 1, 9 --> 1, 10 --> 47, 11 --> 1,
                 12 --> 2, 13 --> 16, 14 --> 1, 15 --> 1, 16 --> 1, 17 --> 1, 18 --> 1, 19 --> 11, 20 --> 1, 21 --> 1)
letting n_classes be 4
letting n_containers be 21
letting separation be function({2, 3} --> 55, {3, 4} --> 39)
letting width be
        function(1 --> 1, 2 --> 35, 3 --> 1, 4 --> 20, 5 --> 1, 6 --> 11, 7 --> 1, 8 --> 2, 9 --> 1, 10 --> 20,
                 11 --> 1, 12 --> 1, 13 --> 1, 14 --> 1, 15 --> 1, 16 --> 1, 17 --> 1, 18 --> 1, 19 --> 1, 20 --> 1,
                 21 --> 1)
